6946.0 414819.0 
6952.0 414573.0 
6989.0 408594.0 
6967.0 411303.0 
6934.0 414948.0 
6951.0 414673.0 
6866.0 420730.0 
6872.0 419920.0 
6985.0 410382.0 
6852.0 424601.0 
7020.0 408401.0 
6962.0 412221.0 
6884.0 416198.0 
6862.0 421268.0 
6949.0 414775.0 
